
nmachesperday = 4;
nmatchesperstadium = 4;
ndays = 7;
nteams = 8;
nstadiums = 7;

fixes=[|{},{},{},{},{},{},{}|
       {},{},{},{},{},{},{}|
       {},{},{},{},{},{},{}  |
       {},{},{},{},{},{},{} |
       {},{},{},{},{},{},{}  |
       {},{},{},{},{},{},{} |
       {},{},{},{},{},{},{}|];
       
       

distancies = [|0, 10, 20, 30, 40, 50, 60|  % A
    10, 0, 15, 25, 35, 45, 55|  % B
    20, 15, 0, 12, 22, 32, 42|  % C
    30, 25, 12, 0, 18, 28, 38|  % D
    40, 35, 22, 18, 0, 16, 26|  % E
    50, 45, 32, 28, 16, 0, 14|  % F
    60, 55, 42, 38, 26, 14, 0|];
    
    
tifosi = [10000,20000,2000,15000,7000,30000,3000,25000];
capacitats = [40000,35000,20000,25000,10000,18000,23000];
